webassembly/ejemplos_dzn/11/folder11_json_21.dzn
TERM = { '.', 's(5)', 's(2)', 's(4)', 'in_1', 'local_0', 'local_1', 'in_6', 'in_2', 'in_4', 'in_3', 's(1)', 's(0)', 'in_5', 's(3)', 'in_0'};
null = '.';
s = 11;
n = 13;
ndeps = 2;
max_registers_sz = 5;
NR = 2;
registers = [|'local_0', 's(1)', |'local_1', 's(1)'|];
dependencies = [|'i32.store16_1', 'call[function_index(0)]_4', |'call[function_index(0)]_4', 'i32.store8_10'|];
GET_ENUM = { GET1, GET2, GET3, GET4, GET5, GET6, GET7};
SET_ENUM = { SET1, SET2, SET3, SET4, SET5, SET6, SET7};
TEE_ENUM = { TEE1, TEE2, TEE3, TEE4, TEE5, TEE6, TEE7};
N = 7;
OP = { 'i32.const_0', 'call[function_index(0)]_4', 'i32.store16_1', 'i32.sub_0', 'i32.add_0', 'i32.add_1', 'i32.store8_10' };
in_ops = [0, 3, 2, 2, 2, 2, 2 ];
out_ops = [1, 2, 0, 1, 1, 1, 0 ];
in1 = ['.', 's(5)', 'local_0', 's(0)', 's(2)', 's(3)', 's(4)' ];
in2 = ['.', 'in_1', 'in_0', 'in_3', 'in_4', 'in_5', 'in_6' ];
in3 = ['.', 'in_2', '.', '.', '.', '.', '.' ];
out1 = ['s(5)', 's(1)', '.', 's(2)', 's(3)', 's(4)', '.' ];
out2 = ['.', 's(0)', '.', '.', '.', '.', '.' ];
out3 = ['.', '.', '.', '.', '.', '.', '.' ];
comm = [false, false, false, false, true, true, false ];
gas = [1, 1, 1, 1, 1, 1, 1 ];
sz = [1, 1, 1, 1, 1, 1, 1 ];
stor = [false, true, true, false, false, false, true ];
lb = [ 1, 1, 1, 1, 1, 1, 1 ];
ub = [ 11, 11, 11, 11, 11, 11, 11 ];
startstack = [ 'in_0', 'in_1', 'in_2', 'in_3', 'in_4', 'in_5', 'in_6', null, null, null, null, null, null ];
endstack = [ null, null, null, null, null, null, null, null, null, null, null, null, null ];
