webassembly/ejemplos_results/11/folder11_json_21.txt
value = 11;
fgas = [2, 1, 1, 1, 1, 2, 1, 1, 1, 1, 1];
fsize = [1, 1, 1, 1, 1, 1, 1, 1, 1, 1, 1];
states = 
[|    in_0,   in_1, in_2, in_3, in_4, in_5, in_6, '.', '.', '.', '.', '.', '.'
 |    in_1,   in_2, in_3, in_4, in_5, in_6,  '.', '.', '.', '.', '.', '.', '.'
 |  's(5)',   in_1, in_2, in_3, in_4, in_5, in_6, '.', '.', '.', '.', '.', '.'
 |  's(1)', 's(0)', in_3, in_4, in_5, in_6,  '.', '.', '.', '.', '.', '.', '.'
 |  's(1)', 's(0)', in_3, in_4, in_5, in_6,  '.', '.', '.', '.', '.', '.', '.'
 |  's(1)', 's(0)', in_3, in_4, in_5, in_6,  '.', '.', '.', '.', '.', '.', '.'
 |  's(0)',   in_3, in_4, in_5, in_6,  '.',  '.', '.', '.', '.', '.', '.', '.'
 |  's(2)',   in_4, in_5, in_6,  '.',  '.',  '.', '.', '.', '.', '.', '.', '.'
 |  's(3)',   in_5, in_6,  '.',  '.',  '.',  '.', '.', '.', '.', '.', '.', '.'
 |  's(4)',   in_6,  '.',  '.',  '.',  '.',  '.', '.', '.', '.', '.', '.', '.'
 | local_0,   in_0,  '.',  '.',  '.',  '.',  '.', '.', '.', '.', '.', '.', '.'
 |     '.',    '.',  '.',  '.',  '.',  '.',  '.', '.', '.', '.', '.', '.', '.'
 |];
register_states = 
[| local_0, local_1, '.', '.', '.', '.', '.'
 | local_0, local_1, '.', '.', '.', '.', '.'
 | local_0, local_1, '.', '.', '.', '.', '.'
 | local_0, local_1, '.', '.', '.', '.', '.'
 |  's(1)', local_1, '.', '.', '.', '.', '.'
 |  's(1)',  's(1)', '.', '.', '.', '.', '.'
 |  's(1)',  's(1)', '.', '.', '.', '.', '.'
 |  's(1)',  's(1)', '.', '.', '.', '.', '.'
 |  's(1)',  's(1)', '.', '.', '.', '.', '.'
 |  's(1)',  's(1)', '.', '.', '.', '.', '.'
 |  's(1)',  's(1)', '.', '.', '.', '.', '.'
 |  's(1)',  's(1)', '.', '.', '.', '.', '.'
 |];
program = [POP, O('i32.const_0'), O('call[function_index(0)]_4'), TEE(TEE1), TEE(TEE2), POP, O('i32.sub_0'), O('i32.add_0'), O('i32.add_1'), O('i32.store8_10'), O('i32.store16_1')];
% time elapsed: 0.29 s
----------
value = 10;
fgas = [2, 1, 1, 1, 1, 1, 1, 1, 1, 1, 0];
fsize = [1, 1, 1, 1, 1, 1, 1, 1, 1, 1, 1];
states = 
[|    in_0,   in_1, in_2, in_3, in_4, in_5, in_6, '.', '.', '.', '.', '.', '.'
 |    in_1,   in_2, in_3, in_4, in_5, in_6,  '.', '.', '.', '.', '.', '.', '.'
 |  's(5)',   in_1, in_2, in_3, in_4, in_5, in_6, '.', '.', '.', '.', '.', '.'
 |  's(1)', 's(0)', in_3, in_4, in_5, in_6,  '.', '.', '.', '.', '.', '.', '.'
 |  's(1)', 's(0)', in_3, in_4, in_5, in_6,  '.', '.', '.', '.', '.', '.', '.'
 |  's(0)',   in_3, in_4, in_5, in_6,  '.',  '.', '.', '.', '.', '.', '.', '.'
 |  's(2)',   in_4, in_5, in_6,  '.',  '.',  '.', '.', '.', '.', '.', '.', '.'
 |  's(3)',   in_5, in_6,  '.',  '.',  '.',  '.', '.', '.', '.', '.', '.', '.'
 |  's(4)',   in_6,  '.',  '.',  '.',  '.',  '.', '.', '.', '.', '.', '.', '.'
 | local_0,   in_0,  '.',  '.',  '.',  '.',  '.', '.', '.', '.', '.', '.', '.'
 |     '.',    '.',  '.',  '.',  '.',  '.',  '.', '.', '.', '.', '.', '.', '.'
 |     '.',    '.',  '.',  '.',  '.',  '.',  '.', '.', '.', '.', '.', '.', '.'
 |];
register_states = 
[| local_0, local_1, '.', '.', '.', '.', '.'
 | local_0, local_1, '.', '.', '.', '.', '.'
 | local_0, local_1, '.', '.', '.', '.', '.'
 | local_0, local_1, '.', '.', '.', '.', '.'
 |  's(1)', local_1, '.', '.', '.', '.', '.'
 |  's(1)',  's(1)', '.', '.', '.', '.', '.'
 |  's(1)',  's(1)', '.', '.', '.', '.', '.'
 |  's(1)',  's(1)', '.', '.', '.', '.', '.'
 |  's(1)',  's(1)', '.', '.', '.', '.', '.'
 |  's(1)',  's(1)', '.', '.', '.', '.', '.'
 |  's(1)',  's(1)', '.', '.', '.', '.', '.'
 |  's(1)',  's(1)', '.', '.', '.', '.', '.'
 |];
program = [POP, O('i32.const_0'), O('call[function_index(0)]_4'), TEE(TEE1), S(SET2), O('i32.sub_0'), O('i32.add_0'), O('i32.add_1'), O('i32.store8_10'), O('i32.store16_1'), NOP];
% time elapsed: 0.31 s
----------
==========
% time elapsed: 0.32 s
% [value > 9]
